/*********************************************
 * OPL 22.1.1.0 Data
 * Author: duongphuonggiang
 * Creation Date: Mar 16, 2024 at 6:01:22 PM
 *********************************************/
 
// https://people.sc.fsu.edu/~jburkardt/datasets/tsp/tsp.html
N=5;

c= [
 [0, 3, 4, 2, 7],
 [3, 0, 4, 6, 3],
 [4, 4, 0, 5, 8],
 [2, 6, 5, 0, 6],
 [7, 3, 8, 6, 0]
];
